Problem:    
Rows:       105
Columns:    45 (34 integer, 34 binary)
Non-zeros:  302
Status:     INTEGER OPTIMAL
Objective:  value = 33.686448 (MINimum)

   No.   Row name        Activity     Lower bound   Upper bound
------ ------------    ------------- ------------- -------------
     1 r.5                   33.6864             0               
     2 r.6                  -459.304      -492.991               
     3 r.7                   533.686             0               
     4 r.8                  -472.942      -496.375               
     5 r.9                   533.686             0               
     6 r.10                 -466.314      -473.445               
     7 r.11                  33.6864             0               
     8 r.12                  12.7509      -482.329               
     9 r.13                  33.6864             0               
    10 r.14                 -5.24685      -485.666               
    11 r.15                  533.686             0               
    12 r.16                 -476.567      -489.318               
    13 r.17                  33.6864             0               
    14 r.18                  7.13195      -487.621               
    15 r.19                  533.686             0               
    16 r.20                 -466.314      -493.371               
    17 r.21                  33.6864             0               
    18 r.22                  1.95078      -499.046               
    19 r.23                  533.686             0               
    20 r.24                 -498.049      -498.049               
    21 r.25                        1             1             = 
    22 r.26                        1             1             = 
    23 r.27                        1             1             = 
    24 r.28                        1             1             = 
    25 r.29                        1             1             = 
    26 r.30                  492.991       26.5545               
    27 r.31                 -492.991      -492.991               
    28 r.32                  485.693       17.6706               
    29 r.33                 -485.693      -496.375               
    30 r.34                  454.057       14.3342               
    31 r.35                 -454.057      -492.991               
    32 r.36                  496.375       10.6816               
    33 r.37                 -496.375      -496.375               
    34 r.38                  466.436       12.3788               
    35 r.39                 -466.436      -492.991               
    36 r.40                   6.6287        6.6287               
    37 r.41                  -6.6287      -496.375               
    38 r.42                 -461.255      -488.145               
    39 r.43                 -474.893      -485.575               
    40 r.44                 -461.255      -488.145               
    41 r.45                 -474.893      -485.575               
    42 r.46                   7.0093        7.0093               
    43 r.47                  -7.0093      -473.445               
    44 r.48                  14.3068        3.6252               
    45 r.49                 -14.3068      -482.329               
    46 r.50                  461.067       14.3342               
    47 r.51                 -461.067      -473.445               
    48 r.52                  10.6816       10.6816               
    49 r.53                 -10.6816      -482.329               
    50 r.54                  473.445       12.3788               
    51 r.55                 -473.445      -473.445               
    52 r.56                  20.9355        6.6287               
    53 r.57                 -20.9355      -482.329               
    54 r.58                 -468.264        -468.6               
    55 r.59                  10.8002      -471.529               
    56 r.60                 -468.264        -468.6               
    57 r.61                  10.8002      -471.529               
    58 r.62                  45.9426        7.0093               
    59 r.63                 -45.9426      -485.666               
    60 r.64                   3.6252        3.6252               
    61 r.65                  -3.6252      -489.318               
    62 r.66                  38.9333       26.5545               
    63 r.67                 -38.9333      -485.666               
    64 r.68                  489.318       17.6706               
    65 r.69                 -489.318      -489.318               
    66 r.70                  12.3788       12.3788               
    67 r.71                 -12.3788      -485.666               
    68 r.72                  10.2539        6.6287               
    69 r.73                 -10.2539      -489.318               
    70 r.74                 -7.19763       -480.82               
    71 r.75                 -478.518      -478.518               
    72 r.76                 -7.19763       -480.82               
    73 r.77                 -478.518      -478.518               
    74 r.78                  33.5638        7.0093               
    75 r.79                 -33.5638      -487.621               
    76 r.80                  493.371        3.6252               
    77 r.81                 -493.371      -493.371               
    78 r.82                  26.5545       26.5545               
    79 r.83                 -26.5545      -487.621               
    80 r.84                  479.065       17.6706               
    81 r.85                 -479.065      -493.371               
    82 r.86                  487.621       14.3342               
    83 r.87                 -487.621      -487.621               
    84 r.88                  489.746       10.6816               
    85 r.89                 -489.746      -493.371               
    86 r.90                  5.18117      -482.776               
    87 r.91                 -468.264      -482.571               
    88 r.92                  5.18117      -482.776               
    89 r.93                 -468.264      -482.571               
    90 r.94                 -461.255      -488.145               
    91 r.95                 -474.893      -485.575               
    92 r.96                 -461.255      -488.145               
    93 r.97                 -474.893      -485.575               
    94 r.98                 -468.264        -468.6               
    95 r.99                  10.8002      -471.529               
    96 r.100                -468.264        -468.6               
    97 r.101                 10.8002      -471.529               
    98 r.102                -7.19763       -480.82               
    99 r.103                -478.518      -478.518               
   100 r.104                -7.19763       -480.82               
   101 r.105                -478.518      -478.518               
   102 r.106                 5.18117      -482.776               
   103 r.107                -468.264      -482.571               
   104 r.108                 5.18117      -482.776               
   105 r.109                -468.264      -482.571               

   No. Column name       Activity     Lower bound   Upper bound
------ ------------    ------------- ------------- -------------
     1 tt                    33.6864             0               
     2 s_1_1        *              0             0             1 
     3 t_1_1                 492.991             0               
     4 s_2_1        *              1             0             1 
     5 t_2_1                  6.6287             0               
     6 s_1_2        *              1             0             1 
     7 t_1_2                       0             0               
     8 s_2_2        *              0             0             1 
     9 t_2_2                 20.9355             0               
    10 s_1_3        *              0             0             1 
    11 t_1_3                 38.9333             0               
    12 s_2_3        *              1             0             1 
    13 t_2_3                 10.2539             0               
    14 s_1_4        *              0             0             1 
    15 t_1_4                 26.5545             0               
    16 s_2_4        *              1             0             1 
    17 t_2_4                       0             0               
    18 s_1_5        *              0             0             1 
    19 t_1_5                 31.7357             0               
    20 s_2_5        *              1             0             1 
    21 t_2_5                 31.7357             0               
    22 u_1_1_2      *              0             0             1 
    23 u_2_1_2      *              1             0             1 
    24 u_1_1_3      *              0             0             1 
    25 u_2_1_3      *              1             0             1 
    26 u_1_1_4      *              0             0             1 
    27 u_2_1_4      *              0             0             1 
    28 u_1_2_1      *              1             0             1 
    29 u_2_2_1      *              0             0             1 
    30 u_1_2_3      *              1             0             1 
    31 u_2_2_3      *              0             0             1 
    32 u_1_2_4      *              1             0             1 
    33 u_2_2_4      *              0             0             1 
    34 u_1_3_1      *              1             0             1 
    35 u_2_3_1      *              0             0             1 
    36 u_1_3_2      *              0             0             1 
    37 u_2_3_2      *              1             0             1 
    38 u_1_3_4      *              0             0             1 
    39 u_2_3_4      *              0             0             1 
    40 u_1_4_1      *              1             0             1 
    41 u_2_4_1      *              1             0             1 
    42 u_1_4_2      *              0             0             1 
    43 u_2_4_2      *              1             0             1 
    44 u_1_4_3      *              1             0             1 
    45 u_2_4_3      *              1             0             1 

Integer feasibility conditions:

KKT.PE: max.abs.err = 0.00e+00 on row 0
        max.rel.err = 0.00e+00 on row 0
        High quality

KKT.PB: max.abs.err = 3.55e-15 on row 42
        max.rel.err = 4.44e-16 on row 42
        High quality

End of output
